instances/p2/p2_2_20-4.dzn
Alphabet = {A,C,G,T};
ns = 2;
nc = 15;
neighbours = [| I(G),I(C),I(C),I(C),I(C),Null,Null,Null,Null,Null,Null,Null,Null,Null,Null | I(A),I(C),I(A),I(C),I(C),I(T),I(A),I(A),I(T),I(T),I(C),I(T),I(G),I(A),I(T) |];
