instances/p2/p2_2_20-4.txt
{
	"num_strings": 2,
	"alphabet": "ACGT",
	"strings": [
		"GCCCC",
		"ACACCTAATTCTGAT"
	],
	"str_length":[5,15]
}